
Gurobi 10.0.1 (mac64[arm]) logging started Mon Apr 29 17:18:51 2024

Set parameter LogFile to value "/Users/deniserings/Documents/zib/s-bahn-data/scripts/DeniseMA/processed/BPKW_BKRW_BSNF_O/Branching/BPKW_BKRW_BSNF_O_slack_subMBP202404291712.log"
Gurobi Optimizer version 10.0.1 build v10.0.1rc0 (mac64[arm])

CPU model: Apple M2
Thread count: 8 physical cores, 8 logical processors, using up to 8 threads

Optimize a model with 4412 rows, 2168 columns and 15764 nonzeros
Model fingerprint: 0xb18f439d
Variable types: 1130 continuous, 1038 integer (66 binary)
Coefficient statistics:
  Matrix range     [1e+00, 2e+02]
  Objective range  [1e+00, 4e+02]
  Bounds range     [1e+00, 2e+02]
  RHS range        [1e+00, 5e+02]

Loaded user MIP start with objective 9798

Presolve removed 2093 rows and 840 columns
Presolve time: 0.08s
Presolved: 2319 rows, 1328 columns, 9629 nonzeros
Found heuristic solution: objective 9797.9990204
Variable types: 590 continuous, 738 integer (738 binary)

Root relaxation: objective 8.799999e+03, 926 iterations, 0.01 seconds (0.01 work units)

    Nodes    |    Current Node    |     Objective Bounds      |     Work
 Expl Unexpl |  Obj  Depth IntInf | Incumbent    BestBd   Gap | It/Node Time

     0     0 8799.99902    0   34 9797.99902 8799.99902  10.2%     -    0s
H    0     0                    9797.9989774 8799.99902  10.2%     -    0s
     0     0 8830.99902    0   77 9797.99898 8830.99902  9.87%     -    0s
H    0     0                    9797.9989711 8830.99902  9.87%     -    0s
     0     0 8830.99902    0   71 9797.99897 8830.99902  9.87%     -    0s
     0     0 8892.80473    0   83 9797.99897 8892.80473  9.24%     -    0s
     0     0 8932.80473    0   55 9797.99897 8932.80473  8.83%     -    0s
     0     0 8932.80473    0   57 9797.99897 8932.80473  8.83%     -    0s
     0     0 8947.97690    0   92 9797.99897 8947.97690  8.68%     -    0s
     0     0 8954.17049    0   76 9797.99897 8954.17049  8.61%     -    0s
     0     0 8954.17049    0   64 9797.99897 8954.17049  8.61%     -    0s
     0     0 8963.15118    0   55 9797.99897 8963.15118  8.52%     -    0s
     0     0 8971.97366    0   60 9797.99897 8971.97366  8.43%     -    0s
     0     0 8971.97366    0   59 9797.99897 8971.97366  8.43%     -    0s
     0     0 8976.63461    0   62 9797.99897 8976.63461  8.38%     -    0s
     0     0 8976.63461    0   75 9797.99897 8976.63461  8.38%     -    0s
     0     0 8976.63461    0   61 9797.99897 8976.63461  8.38%     -    0s
     0     0 8976.63461    0   58 9797.99897 8976.63461  8.38%     -    0s
     0     0 8976.63461    0   59 9797.99897 8976.63461  8.38%     -    0s
     0     0 8976.63461    0   59 9797.99897 8976.63461  8.38%     -    0s
     0     0 9179.99902    0   25 9797.99897 9179.99902  6.31%     -    0s
     0     0 9184.49902    0   90 9797.99897 9184.49902  6.26%     -    0s
     0     0 9184.49902    0   65 9797.99897 9184.49902  6.26%     -    0s
     0     0 9185.51085    0   47 9797.99897 9185.51085  6.25%     -    0s
     0     0 9185.51085    0   49 9797.99897 9185.51085  6.25%     -    0s
     0     0 9185.51085    0   61 9797.99897 9185.51085  6.25%     -    0s
     0     0 9185.51085    0   43 9797.99897 9185.51085  6.25%     -    0s
     0     0 9185.51085    0   22 9797.99897 9185.51085  6.25%     -    0s
     0     0 9185.51085    0   25 9797.99897 9185.51085  6.25%     -    0s
     0     0 9185.51085    0   26 9797.99897 9185.51085  6.25%     -    0s
     0     0 9185.51085    0   25 9797.99897 9185.51085  6.25%     -    0s
     0     0 9185.51085    0   23 9797.99897 9185.51085  6.25%     -    0s
     0     0 9185.51085    0   23 9797.99897 9185.51085  6.25%     -    0s
     0     2 9185.51085    0   14 9797.99897 9185.51085  6.25%     -    0s
H  448   440                    9797.9989328 9185.51085  6.25%  23.1    1s
H  628   688                    9797.9988882 9185.51085  6.25%  20.4    1s
H  802   744                    9790.9989739 9185.51085  6.18%  19.3    1s
H 1084   973                    9785.9989739 9185.51085  6.14%  19.2    1s
  1782  1548 9243.70061   26   44 9785.99897 9195.98942  6.03%  23.2    5s
  1911  1637 9224.54899   10   18 9785.99897 9224.54899  5.74%  33.4   10s
  6408  3451 9260.62695   76   91 9785.99897 9227.40027  5.71%  32.4   15s
H14597  8580                    9770.9990184 9234.88487  5.49%  29.1   19s
 14616 10408 9605.95603  110   44 9770.99902 9234.88487  5.49%  29.2   21s
H19143 11683                    9770.9990166 9235.63228  5.48%  27.8   22s
H19144 11683                    9770.9989155 9235.63228  5.48%  27.8   22s
 23111 14977     cutoff  123      9770.99892 9237.43003  5.46%  27.2   25s
 29061 18001 9437.44282   89   59 9770.99892 9241.95603  5.41%  26.6   31s
H29358 17301                    9770.9988983 9241.95603  5.41%  26.9   34s
 29620 17502 9474.79631  105   23 9770.99890 9241.95603  5.41%  27.0   35s
 35284 19793 9507.99459  114   31 9770.99890 9241.95603  5.41%  27.5   40s
 42824 21850 9534.62332   95   48 9770.99890 9265.35426  5.17%  27.9   46s
 50073 24275 9636.99902  109   27 9770.99890 9299.98851  4.82%  27.9   50s
 59518 27113 9613.99902  124   29 9770.99890 9336.61955  4.45%  28.0   55s
 69048 29946 9536.35616  110   34 9770.99890 9357.83516  4.23%  27.8   60s
 78730 32447 9367.82814   93   65 9770.99890 9361.56176  4.19%  27.7   65s
 86044 37156 9544.64798  112   38 9770.99890 9363.95477  4.17%  27.6   70s
 94756 42575 9540.99902  103   13 9770.99890 9366.08089  4.14%  27.8   75s
 101959 47967 9728.06163   94   39 9770.99890 9367.59233  4.13%  27.7   80s
 109461 52419     cutoff  101      9770.99890 9371.24993  4.09%  27.7   85s
 116846 57169     cutoff  131      9770.99890 9374.04339  4.06%  27.7   90s
 125791 62769 9611.04785   91   32 9770.99890 9376.55661  4.04%  27.7   95s
 136774 70570 9620.39077  102   46 9770.99890 9377.95790  4.02%  27.6  100s
 144400 75021 9419.04020  100   54 9770.99890 9378.83108  4.01%  27.4  105s
 150392 78678 9430.99902   99   44 9770.99890 9378.89407  4.01%  27.4  110s
 155793 81788 9455.54752  101   44 9770.99890 9378.95929  4.01%  27.4  115s
 161569 84877     cutoff  143      9770.99890 9379.42818  4.01%  27.3  120s
 168416 89079 9441.09429  100   52 9770.99890 9380.09297  4.00%  27.3  125s
 172017 91067 9730.02515  124   34 9770.99890 9380.37264  4.00%  27.3  130s
 176236 93339 infeasible  121      9770.99890 9380.66169  3.99%  27.3  135s
 182951 97421 9764.84359  110   39 9770.99890 9381.55661  3.99%  27.4  140s
 190066 102022 9533.48976  112   44 9770.99890 9382.03901  3.98%  27.4  145s
 195134 105187 9443.99902   86   25 9770.99890 9382.87672  3.97%  27.4  150s
 200229 108056 9601.99902  107   35 9770.99890 9382.87672  3.97%  27.4  156s
 204341 110680 9516.02078   99   83 9770.99890 9382.87672  3.97%  27.4  161s
 210136 114246 9415.99902   90   35 9770.99890 9382.95482  3.97%  27.4  165s
 216043 118227 9675.99902  130   32 9770.99890 9383.79430  3.96%  27.4  170s
 223258 122186 9614.99902  113   46 9770.99890 9384.01948  3.96%  27.4  175s
 227465 125087 9507.99902   94   31 9770.99890 9384.23778  3.96%  27.5  180s

Cutting planes:
  Learned: 3
  Gomory: 172
  Cover: 358
  Implied bound: 19
  Clique: 2
  MIR: 144
  StrongCG: 6
  Flow cover: 559
  Inf proof: 12
  Zero half: 1
  Network: 2
  RLT: 23
  Relax-and-lift: 19

Explored 228926 nodes (6292434 simplex iterations) in 180.20 seconds (89.16 work units)
Thread count was 8 (of 8 available processors)

Solution count 10: 9771 9771 9771 ... 9798

Solve interrupted
Best objective 9.770998898300e+03, best bound 9.384428181361e+03, gap 3.9563%

User-callback calls 490874, time in user-callback 2.18 sec

Statistics for modelBPKW_BKRW_BSNF_O:
  Linear constraint matrix    : 4412 Constrs, 2168 Vars, 15764 NZs
  Variable types              : 1130 Continuous,
1038 Integer (66 Binary)
  Matrix coefficient range    : [ 1, 200 ]
  Objective coefficient range : [ 1, 368 ]
  Variable bound range        : [ 1, 199 ]
  RHS coefficient range       : [ 1, 549 ]

Gurobi 10.0.1 (mac64[arm]) logging started Mon Apr 29 17:21:52 2024

Set parameter LogFile to value "/Users/deniserings/Documents/zib/s-bahn-data/scripts/DeniseMA/processed/BPKW_BKRW_BSNF_O/Branching/BPKW_BKRW_BSNF_O_slack_subMBP202404291712.log"
Gurobi Optimizer version 10.0.1 build v10.0.1rc0 (mac64[arm])

CPU model: Apple M2
Thread count: 8 physical cores, 8 logical processors, using up to 8 threads

Optimize a model with 4412 rows, 2168 columns and 15764 nonzeros
Model fingerprint: 0xb18f439d
Variable types: 1130 continuous, 1038 integer (66 binary)
Coefficient statistics:
  Matrix range     [1e+00, 2e+02]
  Objective range  [1e+00, 4e+02]
  Bounds range     [1e+00, 2e+02]
  RHS range        [1e+00, 5e+02]

Loaded user MIP start with objective 9798

Presolve removed 2093 rows and 840 columns
Presolve time: 0.16s
Presolved: 2319 rows, 1328 columns, 9629 nonzeros
Found heuristic solution: objective 9797.9990204
Variable types: 590 continuous, 738 integer (738 binary)

Root relaxation: objective 8.799999e+03, 926 iterations, 0.02 seconds (0.01 work units)

    Nodes    |    Current Node    |     Objective Bounds      |     Work
 Expl Unexpl |  Obj  Depth IntInf | Incumbent    BestBd   Gap | It/Node Time

     0     0 8799.99902    0   34 9797.99902 8799.99902  10.2%     -    0s
H    0     0                    9797.9989774 8799.99902  10.2%     -    0s
     0     0 8830.99902    0   77 9797.99898 8830.99902  9.87%     -    0s
H    0     0                    9797.9989711 8830.99902  9.87%     -    0s
     0     0 8830.99902    0   71 9797.99897 8830.99902  9.87%     -    0s
     0     0 8892.80473    0   83 9797.99897 8892.80473  9.24%     -    0s
     0     0 8932.80473    0   55 9797.99897 8932.80473  8.83%     -    0s
     0     0 8932.80473    0   57 9797.99897 8932.80473  8.83%     -    0s
     0     0 8947.97690    0   92 9797.99897 8947.97690  8.68%     -    0s
     0     0 8954.17049    0   76 9797.99897 8954.17049  8.61%     -    0s
     0     0 8954.17049    0   64 9797.99897 8954.17049  8.61%     -    0s
     0     0 8963.15118    0   55 9797.99897 8963.15118  8.52%     -    0s
     0     0 8971.97366    0   60 9797.99897 8971.97366  8.43%     -    0s
     0     0 8971.97366    0   59 9797.99897 8971.97366  8.43%     -    0s
     0     0 8976.63461    0   62 9797.99897 8976.63461  8.38%     -    0s
     0     0 8976.63461    0   75 9797.99897 8976.63461  8.38%     -    0s
     0     0 8976.63461    0   61 9797.99897 8976.63461  8.38%     -    0s
     0     0 8976.63461    0   58 9797.99897 8976.63461  8.38%     -    0s
     0     0 8976.63461    0   59 9797.99897 8976.63461  8.38%     -    0s
     0     0 8976.63461    0   59 9797.99897 8976.63461  8.38%     -    0s
     0     0 9179.99902    0   25 9797.99897 9179.99902  6.31%     -    1s
     0     0 9184.49902    0   90 9797.99897 9184.49902  6.26%     -    1s
     0     0 9184.49902    0   65 9797.99897 9184.49902  6.26%     -    1s
     0     0 9185.51085    0   47 9797.99897 9185.51085  6.25%     -    1s
     0     0 9185.51085    0   49 9797.99897 9185.51085  6.25%     -    1s
     0     0 9185.51085    0   61 9797.99897 9185.51085  6.25%     -    1s
     0     0 9185.51085    0   43 9797.99897 9185.51085  6.25%     -    1s
     0     0 9185.51085    0   22 9797.99897 9185.51085  6.25%     -    1s
     0     0 9185.51085    0   25 9797.99897 9185.51085  6.25%     -    1s
     0     0 9185.51085    0   26 9797.99897 9185.51085  6.25%     -    1s
     0     0 9185.51085    0   25 9797.99897 9185.51085  6.25%     -    1s
     0     0 9185.51085    0   23 9797.99897 9185.51085  6.25%     -    1s
     0     0 9185.51085    0   23 9797.99897 9185.51085  6.25%     -    1s
     0     2 9185.51085    0   14 9797.99897 9185.51085  6.25%     -    1s
H  448   440                    9797.9989328 9185.51085  6.25%  23.1    2s
H  628   688                    9797.9988882 9185.51085  6.25%  20.4    2s
H  802   744                    9790.9989739 9185.51085  6.18%  19.3    2s
H 1084   973                    9785.9989739 9185.51085  6.14%  19.2    2s
  1753  1527 9316.51085   37   78 9785.99897 9195.98942  6.03%  18.4    5s
  1878  1614 9258.32029   20   72 9785.99897 9224.50788  5.74%  29.3   10s
  4654  2932 9554.99902   99   33 9785.99897 9226.46052  5.72%  32.8   15s
 10945  6414 9624.35886  104   45 9785.99897 9234.88487  5.63%  30.9   20s
H14597  8580                    9770.9990184 9234.88487  5.49%  29.1   22s
 19059 11683 9554.16116   89   25 9770.99902 9235.63228  5.48%  27.8   25s
H19143 11683                    9770.9990166 9235.63228  5.48%  27.8   25s
H19144 11683                    9770.9989155 9235.63228  5.48%  27.8   25s
 28797 18000 9349.14694   77   51 9770.99892 9241.95603  5.41%  26.6   30s
 29072 18008 9333.81856   83   16 9770.99892 9241.95603  5.41%  26.6   35s
H29358 17301                    9770.9988983 9241.95603  5.41%  26.9   36s
 32430 18707 9351.83307   94   37 9770.99890 9241.95603  5.41%  27.4   40s
 40090 21376     cutoff  103      9770.99890 9253.73486  5.29%  27.5   45s
 48053 23810 9692.99902  142   10 9770.99890 9290.25301  4.92%  28.0   50s
 58469 26818 9395.99902   83   61 9770.99890 9336.61955  4.45%  28.0   55s
 68061 29747 9684.32902  117   36 9770.99890 9356.03028  4.25%  27.8   60s
 78841 32945 infeasible  127      9770.99890 9362.17588  4.18%  27.7   65s
 85247 36709 9538.62351  107   33 9770.99890 9363.64002  4.17%  27.6   70s
 89986 39916 9383.81262   87   20 9770.99890 9364.25702  4.16%  27.8   75s
 96537 44707 9650.99902   89   30 9770.99890 9366.21455  4.14%  27.7   80s
 105963 50332 9444.64887   91   72 9770.99890 9369.17788  4.11%  27.7   85s
 115031 56167 9456.35267   96   67 9770.99890 9373.19518  4.07%  27.7   90s
 123828 61627 9475.09113   96   55 9770.99890 9376.55661  4.04%  27.7   95s
 134390 68532 9670.09016  101   66 9770.99890 9377.61911  4.03%  27.6  100s
 144400 75021 9419.04020  100   54 9770.99890 9378.83108  4.01%  27.4  105s
 151662 79488 9607.30934  100   39 9770.99890 9378.90058  4.01%  27.4  110s
 161569 84877     cutoff  143      9770.99890 9379.42818  4.01%  27.3  115s
 170815 89726 9569.95296  110   43 9770.99890 9380.27243  4.00%  27.3  120s
 180731 95924 9722.99902  125   34 9770.99890 9381.24829  3.99%  27.3  125s
 190066 102022 9533.48976  112   44 9770.99890 9382.03901  3.98%  27.4  130s
 200229 108056 9601.99902  107   35 9770.99890 9382.87672  3.97%  27.4  135s
 210893 115014 9485.49170  107   67 9770.99890 9383.02626  3.97%  27.4  140s
 222029 121570 9474.99902  106   21 9770.99890 9384.01948  3.96%  27.4  145s
 230223 126477 9700.99902  110   39 9770.99890 9384.53810  3.96%  27.5  150s
 241071 133224     cutoff  127      9770.99890 9385.50812  3.95%  27.4  155s
 249921 138611 infeasible  134      9770.99890 9386.08089  3.94%  27.3  160s
 254479 140904 9654.12583  122   50 9770.99890 9386.16984  3.94%  27.3  165s
 258165 143695 9769.99902  125   19 9770.99890 9386.38180  3.94%  27.3  170s
 262581 146120 9699.03411  123   37 9770.99890 9386.87722  3.93%  27.3  176s
 265478 147824 9659.23784  109   39 9770.99890 9387.32486  3.93%  27.4  181s

Cutting planes:
  Learned: 3
  Gomory: 173
  Cover: 374
  Implied bound: 20
  Clique: 2
  MIR: 144
  StrongCG: 6
  Flow cover: 565
  Inf proof: 13
  Zero half: 1
  Network: 3
  RLT: 24
  Relax-and-lift: 19

Explored 266491 nodes (7299310 simplex iterations) in 181.33 seconds (100.94 work units)
Thread count was 8 (of 8 available processors)

Solution count 10: 9771 9771 9771 ... 9798

Solve interrupted
Best objective 9.770998898300e+03, best bound 9.387497546186e+03, gap 3.9249%

User-callback calls 569891, time in user-callback 2.13 sec

Statistics for modelBPKW_BKRW_BSNF_O:
  Linear constraint matrix    : 4412 Constrs, 2168 Vars, 15764 NZs
  Variable types              : 1130 Continuous,
1038 Integer (66 Binary)
  Matrix coefficient range    : [ 1, 200 ]
  Objective coefficient range : [ 1, 368 ]
  Variable bound range        : [ 1, 199 ]
  RHS coefficient range       : [ 1, 549 ]
